936155
22 24 45980
24 4 52566
4 19 26533
19 16 62440
16 3 71701
3 14 30026
14 17 42391
17 15 45489
15 9 71452
9 6 47658
6 8 34947
8 11 17581
11 35 5412
35 2 10541
2 10 10593
10 1 6947
1 21 6578
21 7 17005
7 36 11794
36 29 16895
29 38 745
38 23 7449
23 34 31609
34 12 39715
12 33 3967
33 26 15458
26 5 32088
5 32 3290
32 20 24202
20 30 17244
30 37 941
37 39 6534
39 25 4093
25 31 7859
31 28 12751
28 13 6411
13 18 28045
18 27 12606
27 40 17541
40 22 29078
